c File: flat50_3_0.col
c
c SOURCE: Joseph Culberson (joe@cs.ualberta.ca)
c DESCRIPTION: Quasi-random coloring problem
c              generated with flatness = 0
c                             probability = 0.139
c                             known coloring = 3
c                             random seed = 1364
c              Creation Date:  Tue Jun  9 12:07:33 1998
c Maximum degree = 7 Minimum degree = 2
c p edge 50 115
c cnf created by edge2cnf
p cnf 150 545
-1 -2 0
-1 -3 0
-2 -3 0
1 2 3 0
-4 -5 0
-4 -6 0
-5 -6 0
4 5 6 0
-7 -8 0
-7 -9 0
-8 -9 0
7 8 9 0
-10 -11 0
-10 -12 0
-11 -12 0
10 11 12 0
-13 -14 0
-13 -15 0
-14 -15 0
13 14 15 0
-16 -17 0
-16 -18 0
-17 -18 0
16 17 18 0
-19 -20 0
-19 -21 0
-20 -21 0
19 20 21 0
-22 -23 0
-22 -24 0
-23 -24 0
22 23 24 0
-25 -26 0
-25 -27 0
-26 -27 0
25 26 27 0
-28 -29 0
-28 -30 0
-29 -30 0
28 29 30 0
-31 -32 0
-31 -33 0
-32 -33 0
31 32 33 0
-34 -35 0
-34 -36 0
-35 -36 0
34 35 36 0
-37 -38 0
-37 -39 0
-38 -39 0
37 38 39 0
-40 -41 0
-40 -42 0
-41 -42 0
40 41 42 0
-43 -44 0
-43 -45 0
-44 -45 0
43 44 45 0
-46 -47 0
-46 -48 0
-47 -48 0
46 47 48 0
-49 -50 0
-49 -51 0
-50 -51 0
49 50 51 0
-52 -53 0
-52 -54 0
-53 -54 0
52 53 54 0
-55 -56 0
-55 -57 0
-56 -57 0
55 56 57 0
-58 -59 0
-58 -60 0
-59 -60 0
58 59 60 0
-61 -62 0
-61 -63 0
-62 -63 0
61 62 63 0
-64 -65 0
-64 -66 0
-65 -66 0
64 65 66 0
-67 -68 0
-67 -69 0
-68 -69 0
67 68 69 0
-70 -71 0
-70 -72 0
-71 -72 0
70 71 72 0
-73 -74 0
-73 -75 0
-74 -75 0
73 74 75 0
-76 -77 0
-76 -78 0
-77 -78 0
76 77 78 0
-79 -80 0
-79 -81 0
-80 -81 0
79 80 81 0
-82 -83 0
-82 -84 0
-83 -84 0
82 83 84 0
-85 -86 0
-85 -87 0
-86 -87 0
85 86 87 0
-88 -89 0
-88 -90 0
-89 -90 0
88 89 90 0
-91 -92 0
-91 -93 0
-92 -93 0
91 92 93 0
-94 -95 0
-94 -96 0
-95 -96 0
94 95 96 0
-97 -98 0
-97 -99 0
-98 -99 0
97 98 99 0
-100 -101 0
-100 -102 0
-101 -102 0
100 101 102 0
-103 -104 0
-103 -105 0
-104 -105 0
103 104 105 0
-106 -107 0
-106 -108 0
-107 -108 0
106 107 108 0
-109 -110 0
-109 -111 0
-110 -111 0
109 110 111 0
-112 -113 0
-112 -114 0
-113 -114 0
112 113 114 0
-115 -116 0
-115 -117 0
-116 -117 0
115 116 117 0
-118 -119 0
-118 -120 0
-119 -120 0
118 119 120 0
-121 -122 0
-121 -123 0
-122 -123 0
121 122 123 0
-124 -125 0
-124 -126 0
-125 -126 0
124 125 126 0
-127 -128 0
-127 -129 0
-128 -129 0
127 128 129 0
-130 -131 0
-130 -132 0
-131 -132 0
130 131 132 0
-133 -134 0
-133 -135 0
-134 -135 0
133 134 135 0
-136 -137 0
-136 -138 0
-137 -138 0
136 137 138 0
-139 -140 0
-139 -141 0
-140 -141 0
139 140 141 0
-142 -143 0
-142 -144 0
-143 -144 0
142 143 144 0
-145 -146 0
-145 -147 0
-146 -147 0
145 146 147 0
-148 -149 0
-148 -150 0
-149 -150 0
148 149 150 0
-61 -1 0
-62 -2 0
-63 -3 0
-64 -1 0
-65 -2 0
-66 -3 0
-73 -1 0
-74 -2 0
-75 -3 0
-85 -1 0
-86 -2 0
-87 -3 0
-106 -1 0
-107 -2 0
-108 -3 0
-127 -1 0
-128 -2 0
-129 -3 0
-130 -1 0
-131 -2 0
-132 -3 0
-103 -4 0
-104 -5 0
-105 -6 0
-106 -4 0
-107 -5 0
-108 -6 0
-127 -4 0
-128 -5 0
-129 -6 0
-130 -4 0
-131 -5 0
-132 -6 0
-82 -7 0
-83 -8 0
-84 -9 0
-139 -7 0
-140 -8 0
-141 -9 0
-142 -7 0
-143 -8 0
-144 -9 0
-148 -7 0
-149 -8 0
-150 -9 0
-55 -10 0
-56 -11 0
-57 -12 0
-58 -10 0
-59 -11 0
-60 -12 0
-67 -10 0
-68 -11 0
-69 -12 0
-79 -10 0
-80 -11 0
-81 -12 0
-115 -10 0
-116 -11 0
-117 -12 0
-130 -10 0
-131 -11 0
-132 -12 0
-67 -13 0
-68 -14 0
-69 -15 0
-70 -13 0
-71 -14 0
-72 -15 0
-91 -13 0
-92 -14 0
-93 -15 0
-97 -13 0
-98 -14 0
-99 -15 0
-112 -13 0
-113 -14 0
-114 -15 0
-148 -13 0
-149 -14 0
-150 -15 0
-70 -16 0
-71 -17 0
-72 -18 0
-106 -16 0
-107 -17 0
-108 -18 0
-142 -16 0
-143 -17 0
-144 -18 0
-73 -19 0
-74 -20 0
-75 -21 0
-76 -19 0
-77 -20 0
-78 -21 0
-85 -19 0
-86 -20 0
-87 -21 0
-97 -19 0
-98 -20 0
-99 -21 0
-61 -22 0
-62 -23 0
-63 -24 0
-67 -22 0
-68 -23 0
-69 -24 0
-88 -22 0
-89 -23 0
-90 -24 0
-94 -22 0
-95 -23 0
-96 -24 0
-127 -22 0
-128 -23 0
-129 -24 0
-136 -22 0
-137 -23 0
-138 -24 0
-58 -25 0
-59 -26 0
-60 -27 0
-76 -25 0
-77 -26 0
-78 -27 0
-91 -25 0
-92 -26 0
-93 -27 0
-100 -25 0
-101 -26 0
-102 -27 0
-133 -25 0
-134 -26 0
-135 -27 0
-142 -25 0
-143 -26 0
-144 -27 0
-58 -28 0
-59 -29 0
-60 -30 0
-79 -28 0
-80 -29 0
-81 -30 0
-97 -28 0
-98 -29 0
-99 -30 0
-100 -28 0
-101 -29 0
-102 -30 0
-121 -28 0
-122 -29 0
-123 -30 0
-139 -28 0
-140 -29 0
-141 -30 0
-58 -31 0
-59 -32 0
-60 -33 0
-124 -31 0
-125 -32 0
-126 -33 0
-142 -31 0
-143 -32 0
-144 -33 0
-145 -31 0
-146 -32 0
-147 -33 0
-112 -34 0
-113 -35 0
-114 -36 0
-118 -34 0
-119 -35 0
-120 -36 0
-118 -37 0
-119 -38 0
-120 -39 0
-148 -37 0
-149 -38 0
-150 -39 0
-100 -40 0
-101 -41 0
-102 -42 0
-115 -40 0
-116 -41 0
-117 -42 0
-121 -40 0
-122 -41 0
-123 -42 0
-133 -40 0
-134 -41 0
-135 -42 0
-64 -43 0
-65 -44 0
-66 -45 0
-85 -43 0
-86 -44 0
-87 -45 0
-100 -43 0
-101 -44 0
-102 -45 0
-139 -43 0
-140 -44 0
-141 -45 0
-148 -43 0
-149 -44 0
-150 -45 0
-52 -46 0
-53 -47 0
-54 -48 0
-64 -46 0
-65 -47 0
-66 -48 0
-88 -46 0
-89 -47 0
-90 -48 0
-127 -46 0
-128 -47 0
-129 -48 0
-133 -46 0
-134 -47 0
-135 -48 0
-61 -49 0
-62 -50 0
-63 -51 0
-91 -49 0
-92 -50 0
-93 -51 0
-136 -49 0
-137 -50 0
-138 -51 0
-103 -52 0
-104 -53 0
-105 -54 0
-109 -52 0
-110 -53 0
-111 -54 0
-112 -52 0
-113 -53 0
-114 -54 0
-127 -52 0
-128 -53 0
-129 -54 0
-124 -55 0
-125 -56 0
-126 -57 0
-109 -58 0
-110 -59 0
-111 -60 0
-142 -58 0
-143 -59 0
-144 -60 0
-118 -61 0
-119 -62 0
-120 -63 0
-127 -61 0
-128 -62 0
-129 -63 0
-103 -64 0
-104 -65 0
-105 -66 0
-106 -64 0
-107 -65 0
-108 -66 0
-103 -67 0
-104 -68 0
-105 -69 0
-121 -67 0
-122 -68 0
-123 -69 0
-103 -70 0
-104 -71 0
-105 -72 0
-106 -70 0
-107 -71 0
-108 -72 0
-118 -70 0
-119 -71 0
-120 -72 0
-145 -70 0
-146 -71 0
-147 -72 0
-112 -73 0
-113 -74 0
-114 -75 0
-127 -73 0
-128 -74 0
-129 -75 0
-130 -73 0
-131 -74 0
-132 -75 0
-148 -73 0
-149 -74 0
-150 -75 0
-106 -76 0
-107 -77 0
-108 -78 0
-133 -76 0
-134 -77 0
-135 -78 0
-121 -79 0
-122 -80 0
-123 -81 0
-109 -82 0
-110 -83 0
-111 -84 0
-139 -85 0
-140 -86 0
-141 -87 0
-106 -88 0
-107 -89 0
-108 -90 0
-124 -88 0
-125 -89 0
-126 -90 0
-139 -88 0
-140 -89 0
-141 -90 0
-142 -88 0
-143 -89 0
-144 -90 0
-109 -91 0
-110 -92 0
-111 -93 0
-136 -91 0
-137 -92 0
-138 -93 0
-121 -94 0
-122 -95 0
-123 -96 0
-124 -94 0
-125 -95 0
-126 -96 0
-139 -97 0
-140 -98 0
-141 -99 0
-115 -100 0
-116 -101 0
-117 -102 0
-133 -100 0
-134 -101 0
-135 -102 0
-148 -100 0
-149 -101 0
-150 -102 0
